p tw 48 55
1 2
2 13
3 4
4 5
4 6
5 42
6 7
7 8
8 9
8 10
9 10
9 17
10 11
11 12
12 14
13 24
14 15
15 16
16 31
17 18
18 19
19 20
19 29
20 21
21 22
21 29
22 23
23 25
24 35
25 26
26 27
27 28
28 31
29 30
30 42
31 32
32 33
33 34
34 36
34 37
35 44
36 37
36 46
37 38
38 39
39 40
40 41
40 35
41 42
42 43
44 45
45 46
46 47
47 48
48 3
